1440014
0,4,34,97,100,33,51,28,58,83,50,1,80,45,93,106,15,42,84,78,66,3,73,22,23,89,108,9,48,65,76,8,36,25,37,40,30,71,74,56,85,26,68,69,38,13,46,70,10,90,88,96,103,57,53,101,104,98,41,59,105,32,107,77,54,67,39,27,7,35,11,64,87,6,17,49,75,72,18,86,61,95,92,12,20,16,52,99,21,63,14,79,47,55,91,102,29,5,60,94,31,43,19,62,2,82,24,44,81,0